NAME : portcgen-28-29
COMMENT : portcgen N=28, seed=29
TYPE : TSP
DIMENSION : 28
EDGE_WEIGHT_TYPE : EUC_2D
NODE_COORD_SECTION
1 -243318 -165594
2 -16156 432465
3 406093 -32130
4 216522 -79289
5 -127871 -88749
6 -223933 80506
7 -282426 -355307
8 -38232 -40263
9 57140 -106089
10 -258711 -258419
11 -301332 130552
12 204228 -60689
13 111290 352045
14 126388 87410
15 175155 309940
16 -20915 160595
17 -51205 -143985
18 -107913 -9591
19 -120403 50855
20 68671 131822
21 84703 467823
22 -324213 138136
23 -7634 4099
24 260588 215639
25 260261 -86265
26 103354 -4156
27 206434 143258
28 123840 196817
